
Gurobi 6.0.4 (win64) logging started 06/21/15 19:05:31

Read LP format model from file C:\MT\repository\VRPTWMS\instances\mip\fuel\N4-C_DV100-C_SV30_F6_4_No_1.lp
Reading time = 0.01 seconds
(null): 129 rows, 72 columns, 447 nonzeros
Optimize a model with 129 rows, 72 columns and 447 nonzeros
Model has 64 quadratic constraints
Coefficient statistics:
  Matrix range    [1e+00, 1e+06]
  Objective range [9e+04, 1e+07]
  Bounds range    [1e+00, 1e+06]
  RHS range       [1e+00, 1e+06]
Presolve removed 36 rows and 16 columns
Presolve time: 0.00s
Presolved: 187 rows, 103 columns, 826 nonzeros
Variable types: 47 continuous, 56 integer (41 binary)
Found heuristic solution: objective 2.107360e+07
Found heuristic solution: objective 2.101150e+07

Root relaxation: objective 1.080338e+07, 26 iterations, 0.00 seconds

    Nodes    |    Current Node    |     Objective Bounds      |     Work
 Expl Unexpl |  Obj  Depth IntInf | Incumbent    BestBd   Gap | It/Node Time

     0     0 1.0803e+07    0   10 2.1012e+07 1.0803e+07  48.6%     -    0s
     0     0 1.0994e+07    0   11 2.1012e+07 1.0994e+07  47.7%     -    0s
H    0     0                    2.092400e+07 1.0994e+07  47.5%     -    0s
     0     0 1.1603e+07    0   14 2.0924e+07 1.1603e+07  44.5%     -    0s
     0     0 1.2727e+07    0   13 2.0924e+07 1.2727e+07  39.2%     -    0s
     0     0 1.2727e+07    0   11 2.0924e+07 1.2727e+07  39.2%     -    0s
     0     0 1.2727e+07    0    8 2.0924e+07 1.2727e+07  39.2%     -    0s
     0     0 1.5976e+07    0    9 2.0924e+07 1.5976e+07  23.6%     -    0s

Cutting planes:
  Gomory: 1
  Implied bound: 1
  Clique: 7
  MIR: 1

Explored 0 nodes (101 simplex iterations) in 0.02 seconds
Thread count was 2 (of 4 available processors)

Optimal solution found (tolerance 1.00e-04)
Best objective 2.092400000000e+07, best bound 2.092400000000e+07, gap 0.0%
k_c1	80000.0
k_c2	100000.0
k_c3	40000.0
k_c4	959999.0
k_dN	-0.0
o_1	0.0
o_2	0.0
o_3	0.0
o_4	0.0
p_1	0.0
p_2	0.0
p_3	0.0
p_4	0.0
phi_c1	22706.0
phi_c2	28419.0
phi_c3	9319.0
phi_c4	45555.999999999985
phi_d0	60000.0
phi_dN	-0.0
tauD_c1	371350.0
tauD_c2	300000.0
tauD_c3	500000.0
tauD_c4	100000.0
tauD_d0	-0.0
tauD_dN	1000000.0
tauS_c1	0.0
tauS_c2	0.0
tauS_c3	0.0
tauS_c4	0.0
tauS_d0	-0.0
tauS_dN	29600.0
x_c1_dN	1.0
x_c2_c1	1.0
x_c3_dN	1.0
x_c4_c3	1.0
x_d0_c2	1.0
x_d0_c4	1.0
